HFSDDW
20	4	2
0	55	1	93
0	83	1	29
0	69	1	81
0	19	1	48
0	99	1	22
0	65	1	55
0	26	1	94
0	45	1	37
0	94	1	2
0	94	1	84
0	95	1	11
0	14	1	33
0	92	1	98
0	79	1	65
0	35	1	90
0	27	1	14
0	20	1	1
0	88	1	75
0	20	1	82
0	91	1	96
LBCmax: 607
RELDUE
-1	389	1	5
-1	372	2	1
-1	139	9	5
-1	244	4	3
-1	93	1	7
-1	227	2	2
-1	301	1	9
-1	222	9	1
-1	185	9	6
-1	116	3	5
-1	305	3	4
-1	303	3	2
-1	64	3	6
-1	279	2	6
-1	337	3	5
-1	222	9	7
-1	351	5	2
-1	248	9	4
-1	194	7	2
-1	319	5	6
DDW
381	397
339	405
128	150
212	276
74	112
200	254
265	337
220	224
159	211
100	132
271	339
291	315
60	68
229	329
310	364
191	253
333	369
201	295
161	227
297	341
